% demand
num_movements = 28;
loading_factor = [1250, 1100, 1150, 1850, 1350, 1250, 900, 1550, 850, 1400, 1950, 1250, 1350, 1850, 1450, 1450, 1650, 1050, 950, 850, 850, 1750, 1500, 1950, 1950, 1500, 1250, 1450];
pickup_time = [0, 1, 1, 2, 2, 2, 2, 4, 4, 4, 4, 4, 5, 5, 5, 7, 7, 7, 9, 9, 10, 10, 10, 10, 12, 12, 12, 12];
delivery_time = [1, 2, 2, 3, 3, 4, 4, 7, 5, 5, 5, 5, 9, 7, 6, 9, 9, 8, 11, 10, 13, 12, 12, 11, 13, 13, 13, 13];

% transporter definition
total_capacity = 7000;
num_decks = 3;
capacity = [3000, 1000, 3000];

% ways out of decks
num_ways_out = 1;
paths_out = array3d(decks, ways_out, decks, [
% ways out of deck d1
2, 3, 0, 

% ways out of deck d2
3, 0, 0, 

% ways out of deck d3
0, 0, 0,	

]);

